1097052
67,61,82,58,15,16,83,36,44,55,72,62,49,41,18,75,69,6,56,77,96,10,60,31,93,63,13,68,99,80,76,38,88,50,42,97,35,27,2,3,5,64,89,85,8,53,91,87,45,86,81,14,84,73,22,92,39,7,66,4,70,37,74,32,21,20,30,48,1,33,9,57,47,95,25,51,29,79,78,43,52,65,54,23,98,24,12,26,17,40,94,19,59,90,71,34,46,28,11